41111177659595929565655643681934819284624913873648193572763457338727635818463827546381846358184638275463572763457365727637284637546914691738461891376281655468194191946287346287229173834736473826472925647652917562917925377337831982528643792437642837627376189137